80 49 
76 20 
25 47 
69 52 
23 41 
18 13 
93 14 
6 53 
94 2 
19 65 
31 38 
59 16 
94 65 
82 86 
68 3 
79 49 
52 56 
69 78 
55 38 
30 78 
32 0 
43 25 
14 1 
78 61 
4 50 
78 87 
40 38 
55 86 
3 89 
72 24 
92 52 
73 44 
60 94 
22 15 
85 4 
45 17 
4 41 
94 71 
42 24 
84 98 
26 62 
37 66 
0 92 
52 56 
81 77 
80 73 
81 53 
70 41 
99 44 
56 36 
